# Solution for model problem_
# Objective value = 5.4979127869559583e+04
x(0_0) 0
x(0_1) 0
x(0_2) 0
x(0_3) 0
x(0_4) 0
x(0_5) 0
x(0_6) 0
x(0_7) 0
x(0_8) 0
x(0_9) 0
x(0_10) 0
x(0_11) 1
x(1_12) 0
x(1_13) 0
x(1_14) 0
x(1_15) 0
x(1_16) 0
x(1_17) 0
x(1_18) 0
x(1_19) 0
x(1_20) 0
x(1_21) 0
x(1_22) 0
x(1_23) 0
x(1_24) 0
x(1_25) 0
x(1_26) 0
x(1_27) 0
x(1_28) 1
x(1_29) 0
x(1_30) 0
x(1_31) 0
x(2_32) 0
x(2_33) 0
x(2_34) 0
x(2_35) 0
x(2_36) 0
x(2_37) 0
x(2_38) 0
x(2_39) 0
x(2_40) 1
x(2_41) 0
x(2_42) 0
x(2_43) 0
x(2_44) 0
x(3_45) 0
x(3_46) 0
x(3_47) 0
x(3_48) 1
x(3_49) 0
x(3_50) 0
x(3_51) 0
x(3_52) 0
x(3_53) 0
x(3_54) 0
x(4_55) 0
x(4_56) 0
x(4_57) 0
x(4_58) 0
x(4_59) 0
x(4_60) 0
x(4_61) 0
x(4_62) 0
x(4_63) 0
x(4_64) 0
x(4_65) 1
x(4_66) 0
x(4_67) 0
x(5_68) 0
x(5_69) 1
x(5_70) 0
x(5_71) 0
x(5_72) 0
x(5_73) 0
x(5_74) 0
x(5_75) 0
x(5_76) 0
x(5_77) 0
x(5_78) 0
x(5_79) 0
x(6_80) 0
x(6_81) 0
x(6_82) 0
x(6_83) 0
x(6_84) 0
x(6_85) 0
x(6_86) 0
x(6_87) 0
x(6_88) 0
x(6_89) 0
x(6_90) 0
x(6_91) 0
x(6_92) 0
x(6_93) 0
x(6_94) 0
x(6_95) 1
x(6_96) 0
x(6_97) 0
x(7_98) 1
x(7_99) 0
x(7_100) 0
x(7_101) 0
x(7_102) 0
x(7_103) 0
x(7_104) 0
x(7_105) 0
x(7_106) 0
x(7_107) 0
x(7_108) 0
x(7_109) 0
x(7_110) 0
x(7_111) 0
x(8_112) 0
x(8_113) 0
x(8_114) 0
x(8_115) 0
x(8_116) 0
x(8_117) 0
x(8_118) 0
x(8_119) 0
x(8_120) 1
x(8_121) 0
x(8_122) 0
x(8_123) 0
x(9_124) 0
x(9_125) 0
x(9_126) 0
x(9_127) 0
x(9_128) 0
x(9_129) 0
x(9_130) 0
x(9_131) 1
x(9_132) 0
x(9_133) 0
x(9_134) 0
x(9_135) 0
x(9_136) 0
x(9_137) 0
x(10_138) 1
x(10_139) 0
x(10_140) 0
x(10_141) 0
x(10_142) 0
x(10_143) 0
x(10_144) 0
x(10_145) 0
x(10_146) 0
x(10_147) 0
x(10_148) 0
x(10_149) 0
x(10_150) 0
x(10_151) 0
x(10_152) 0
x(10_153) 0
x(10_154) 0
x(10_155) 0
x(10_156) 0
x(10_157) 0
x(11_158) 0
x(11_159) 0
x(11_160) 0
x(11_161) 0
x(11_162) 0
x(11_163) 0
x(11_164) 0
x(11_165) 0
x(11_166) 0
x(11_167) 0
x(11_168) 1
x(11_169) 0
x(11_170) 0
x(11_171) 0
x(12_172) 0
x(12_173) 0
x(12_174) 0
x(12_175) 0
x(12_176) 0
x(12_177) 0
x(12_178) 0
x(12_179) 0
x(12_180) 0
x(12_181) 0
x(12_182) 0
x(12_183) 1
x(13_184) 0
x(13_185) 0
x(13_186) 0
x(13_187) 0
x(13_188) 0
x(13_189) 0
x(13_190) 0
x(13_191) 0
x(13_192) 0
x(13_193) 1
x(13_194) 0
x(13_195) 0
x(13_196) 0
x(13_197) 0
x(14_198) 0
x(14_199) 0
x(14_200) 0
x(14_201) 0
x(14_202) 0
x(14_203) 1
x(14_204) 0
x(14_205) 0
x(14_206) 0
x(14_207) 0
x(14_208) 0
x(15_209) 0
x(15_210) 0
x(15_211) 0
x(15_212) 0
x(15_213) 0
x(15_214) 0
x(15_215) 0
x(15_216) 0
x(15_217) 0
x(15_218) 0
x(15_219) 0
x(15_220) 0
x(15_221) 0
x(15_222) 0
x(15_223) 1
x(15_224) 0
x(15_225) 0
x(16_226) 0
x(16_227) 0
x(16_228) 0
x(16_229) 0
x(16_230) 0
x(16_231) 0
x(16_232) 0
x(16_233) 0
x(16_234) 1
x(16_235) 0
x(16_236) 0
x(16_237) 0
x(16_238) 0
x(16_239) 0
x(16_240) 0
x(16_241) 0
x(17_242) 0
x(17_243) 0
x(17_244) 0
x(17_245) 0
x(17_246) 0
x(17_247) 0
x(17_248) 0
x(17_249) 0
x(17_250) 0
x(17_251) 0
x(17_252) 0
x(17_253) 0
x(17_254) 0
x(17_255) 0
x(17_256) 1
x(18_257) 0
x(18_258) 0
x(18_259) 0
x(18_260) 0
x(18_261) 0
x(18_262) 0
x(18_263) 0
x(18_264) 0
x(18_265) 0
x(18_266) 0
x(18_267) 1
x(18_268) 0
x(18_269) 0
x(18_270) 0
x(18_271) 0
x(18_272) 0
x(18_273) 0
x(18_274) 0
x(18_275) 0
x(19_276) 1
x(19_277) 0
x(19_278) 0
x(19_279) 0
x(19_280) 0
x(19_281) 0
x(19_282) 0
x(19_283) 0
x(19_284) 0
x(19_285) 0
x(19_286) 0
x(19_287) 0
x(20_288) 0
x(20_289) 0
x(20_290) 0
x(20_291) 0
x(20_292) 0
x(20_293) 0
x(20_294) 0
x(20_295) 0
x(20_296) 0
x(20_297) 0
x(20_298) 0
x(20_299) 0
x(20_300) 0
x(20_301) 0
x(20_302) 0
x(20_303) 0
x(20_304) 0
x(20_305) 0
x(20_306) 1
x(20_307) 0
x(21_308) 0
x(21_309) 0
x(21_310) 0
x(21_311) 0
x(21_312) 1
x(21_313) 0
x(21_314) 0
x(21_315) 0
x(21_316) 0
x(21_317) 0
x(21_318) 0
x(21_319) 0
x_1_0 9.9486120700836182e+01
s_1_0 0
z_1_0 0
x_1_1 9.9087902307510376e+01
s_1_1 0
z_1_1 0
x_1_2 0
s_1_2 6.4530863863183185e-01
z_1_2 1
x_1_3 99.7680196762085
s_1_3 0
z_1_3 0
x_1_4 9.9348055362701416e+01
s_1_4 0
z_1_4 0
x_1_5 0
s_1_5 0.723173257894814
z_1_5 1
x_1_6 1.0002100443840027e+02
s_1_6 0
z_1_6 0
x_1_7 9.8890115261077881e+01
s_1_7 0
z_1_7 0
x_1_8 1.0038301301002502e+02
s_1_8 0
z_1_8 0
x_1_9 0
s_1_9 1.05753693531733
z_1_9 1
x_1_10 0
s_1_10 4.7898825304582715e-01
z_1_10 1
x_1_11 0
s_1_11 8.9260736759752035e-01
z_1_11 1
x_1_12 0
s_1_12 5.4504024371271953e-01
z_1_12 1
x_1_13 98.8654203414917
s_1_13 0
z_1_13 0
x_1_14 9.9390747547149658e+01
s_1_14 0
z_1_14 0
x_1_15 0
s_1_15 4.3004448736610357e-01
z_1_15 1
x_1_16 9.9302139282226562e+01
s_1_16 0
z_1_16 0
x_1_17 1.0039614343643188e+02
s_1_17 0
z_1_17 0
x_1_18 0
s_1_18 9.1909516771556810e-01
z_1_18 1
x_1_19 0
s_1_19 6.7946230596862733e-01
z_1_19 1
x_1_20 9.8781072616577148e+01
s_1_20 0
z_1_20 0
x_1_21 1.0036821818351746e+02
s_1_21 0
z_1_21 0
x_1_22 1.0006198740005493e+02
s_1_22 0
z_1_22 0
x_1_23 0
s_1_23 5.0385128753259778e-01
z_1_23 1
x_1_24 9.9609067440032959e+01
s_1_24 0
z_1_24 0
x_1_25 9.9431666612625122e+01
s_1_25 0
z_1_25 0
x_1_26 9.9739280223846436e+01
s_1_26 0
z_1_26 0
x_1_27 0
s_1_27 7.7925464999862015e-01
z_1_27 1
x_1_28 99.8620355129242
s_1_28 0
z_1_28 0
x_1_29 1.0047441768646240e+02
s_1_29 0
z_1_29 0
x_1_30 9.9175964593887329e+01
s_1_30 0
z_1_30 0
x_1_31 1.0034773731231689e+02
s_1_31 0
z_1_31 0
x_1_32 9.9819904804229736e+01
s_1_32 0
z_1_32 0
x_1_33 9.7223230361938477e+01
s_1_33 0
z_1_33 0
x_1_34 99.8525185585022
s_1_34 0
z_1_34 0
x_1_35 9.8524650096893311e+01
s_1_35 0
z_1_35 0
x_1_36 0
s_1_36 1.2133768787607551e+00
z_1_36 1
x_1_37 0
s_1_37 0.746041885111481
z_1_37 1
x_1_38 9.9799436569213867e+01
s_1_38 0
z_1_38 0
x_1_39 0
s_1_39 9.2911651683971286e-01
z_1_39 1
x_1_40 0
s_1_40 5.8194529538741335e-01
z_1_40 1
x_1_41 0
s_1_41 9.4150276598520577e-01
z_1_41 1
x_1_42 0
s_1_42 1.08286886010319
z_1_42 1
x_1_43 99.612051486969
s_1_43 0
z_1_43 0
x_1_44 1.0058201336860657e+02
s_1_44 0
z_1_44 0
x_1_45 9.9416251420974731e+01
s_1_45 0
z_1_45 0
x_1_46 0
s_1_46 2.5655215157894418e-01
z_1_46 1
x_1_47 0
s_1_47 1.0997500955127180e+00
z_1_47 1
x_1_48 0
s_1_48 9.6686110226437449e-01
z_1_48 1
x_1_49 1.0048423981666565e+02
s_1_49 0
z_1_49 0
x_1_50 9.9665919065475464e+01
s_1_50 0
z_1_50 0
x_1_51 0
s_1_51 8.3744021074380726e-01
z_1_51 1
x_1_52 9.9934339761734009e+01
s_1_52 0
z_1_52 0
x_1_53 9.9245385646820068e+01
s_1_53 0
z_1_53 0
x_1_54 0
s_1_54 5.0988297862932086e-01
z_1_54 1
x_1_55 0
s_1_55 3.9321539516095072e-01
z_1_55 1
x_1_56 0
s_1_56 1.1393759193597361e+00
z_1_56 1
x_1_57 9.9341294288635254e+01
s_1_57 0
z_1_57 0
x_1_58 1.0021793532371521e+02
s_1_58 0
z_1_58 0
x_1_59 0
s_1_59 0.85559216234833
z_1_59 1
x_1_60 9.8794590234756470e+01
s_1_60 0
z_1_60 0
x_1_61 1.0000727820396423e+02
s_1_61 0
z_1_61 0
x_1_62 0
s_1_62 0.961161073151743
z_1_62 1
x_1_63 1.0064176702499390e+02
s_1_63 0
z_1_63 0
x_1_64 1.0008804321289062e+02
s_1_64 0
z_1_64 0
x_1_65 0
s_1_65 8.3426718227565289e-01
z_1_65 1
x_1_66 4.9999658983125351e+04
s_1_66 5.0000341016874649e+04
z_1_66 5.0000341016874650e-01
x_1_67 1.0036216497421265e+02
s_1_67 0
z_1_67 0
x_1_68 9.9865792512893677e+01
s_1_68 0
z_1_68 0
x_1_69 0
s_1_69 8.1525256013264880e-01
z_1_69 1
x_1_70 1.0002819490432739e+02
s_1_70 0
z_1_70 0
x_1_71 9.9161264181137085e+01
s_1_71 0
z_1_71 0
x_1_72 0
s_1_72 4.7403178585227579e-01
z_1_72 1
x_1_73 0
s_1_73 9.0142840612679720e-01
z_1_73 1
x_1_74 0
s_1_74 4.3812660279218107e-01
z_1_74 1
x_1_75 9.9305478572845459e+01
s_1_75 0
z_1_75 0
x_1_76 1.0000552797317505e+02
s_1_76 0
z_1_76 0
x_1_77 9.9480306863784790e+01
s_1_77 0
z_1_77 0
x_1_78 9.9642603874206543e+01
s_1_78 0
z_1_78 0
x_1_79 9.9026722431182861e+01
s_1_79 0
z_1_79 0
x_1_80 9.9287085294723511e+01
s_1_80 0
z_1_80 0
x_1_81 9.9770680427551270e+01
s_1_81 0
z_1_81 0
x_1_82 0
s_1_82 6.5605171196148149e-01
z_1_82 1
x_1_83 0
s_1_83 5.7070294860750437e-01
z_1_83 1
x_1_84 0
s_1_84 3.6952097527682781e-01
z_1_84 1
x_1_85 0
s_1_85 8.2729225896764547e-01
z_1_85 1
x_1_86 0
s_1_86 8.9132404263364151e-01
z_1_86 1
x_1_87 0
s_1_87 7.2091842599911615e-01
z_1_87 1
x_1_88 9.9512465715408325e+01
s_1_88 0
z_1_88 0
x_1_89 1.0009253406524658e+02
s_1_89 0
z_1_89 0
x_1_90 9.9669789314270020e+01
s_1_90 0
z_1_90 0
x_1_91 0
s_1_91 9.8868128517642617e-01
z_1_91 1
x_1_92 0
s_1_92 8.2759105139120948e-01
z_1_92 1
x_1_93 0
s_1_93 6.4550800155848265e-01
z_1_93 1
x_1_94 0
s_1_94 9.9683330254629254e-01
z_1_94 1
x_1_95 98.7997088432312
s_1_95 0
z_1_95 0
x_1_96 0
s_1_96 7.9555947420885786e-01
z_1_96 1
x_1_97 0
s_1_97 0.614854833111167
z_1_97 1
x_1_98 9.9930837869644165e+01
s_1_98 0
z_1_98 0
x_1_99 1.0057403278350830e+02
s_1_99 0
z_1_99 0
x_1_100 0
s_1_100 8.5802019457332790e-01
z_1_100 1
x_1_101 0
s_1_101 7.9673591064056382e-01
z_1_101 1
x_1_102 0
s_1_102 7.6027971273288131e-01
z_1_102 1
x_1_103 9.9086240291595459e+01
s_1_103 0
z_1_103 0
x_1_104 9.7624250650405884e+01
s_1_104 0
z_1_104 0
x_1_105 0
s_1_105 1.2384038546006195e+00
z_1_105 1
x_1_106 9.7047547340393066e+01
s_1_106 0
z_1_106 0
x_1_107 99.7661862373352
s_1_107 0
z_1_107 0
x_1_108 9.9913363456726074e+01
s_1_108 0
z_1_108 0
x_1_109 9.9578472614288330e+01
s_1_109 0
z_1_109 0
x_1_110 1.0070438599586487e+02
s_1_110 0
z_1_110 0
x_1_111 1.0034264993667603e+02
s_1_111 0
z_1_111 0
x_1_112 9.8534167289733887e+01
s_1_112 0
z_1_112 0
x_1_113 9.9298752546310425e+01
s_1_113 0
z_1_113 0
x_1_114 1.0066090941429138e+02
s_1_114 0
z_1_114 0
x_1_115 1.0057181882858276e+02
s_1_115 0
z_1_115 0
x_1_116 0
s_1_116 1.1205507719423622e+00
z_1_116 1
x_1_117 9.9967384099960327e+01
s_1_117 0
z_1_117 0
x_1_118 9.9428326606750488e+01
s_1_118 0
z_1_118 0
x_1_119 0
s_1_119 8.4670712705701590e-01
z_1_119 1
x_1_120 0
s_1_120 9.1688404045999050e-01
z_1_120 1
x_1_121 0
s_1_121 5.0424353126436472e-01
z_1_121 1
x_1_122 9.8323024511337280e+01
s_1_122 0
z_1_122 0
x_1_123 9.9510998964309692e+01
s_1_123 0
z_1_123 0
x_1_124 9.9370189189910889e+01
s_1_124 0
z_1_124 0
x_1_125 0
s_1_125 6.5409652143716812e-01
z_1_125 1
x_1_126 9.9798538684844971e+01
s_1_126 0
z_1_126 0
x_1_127 9.9724116802215576e+01
s_1_127 0
z_1_127 0
x_1_128 9.9099470615386963e+01
s_1_128 0
z_1_128 0
x_1_129 1.0007336306571960e+02
s_1_129 0
z_1_129 0
x_1_130 9.6764140844345093e+01
s_1_130 0
z_1_130 0
x_1_131 1.0028771996498108e+02
s_1_131 0
z_1_131 0
x_1_132 99.700368642807
s_1_132 0
z_1_132 0
x_1_133 0
s_1_133 9.1954403975978494e-01
z_1_133 1
x_1_134 0
s_1_134 7.6474281796254218e-01
z_1_134 1
x_1_135 0
s_1_135 4.1770691564306617e-01
z_1_135 1
x_1_136 0
s_1_136 8.9410516060888767e-01
z_1_136 1
x_1_137 9.9516951560974121e+01
s_1_137 0
z_1_137 0
x_1_138 0
s_1_138 6.4926332607865334e-01
z_1_138 1
x_1_139 9.9776614189147949e+01
s_1_139 0
z_1_139 0
x_1_140 99.9569993019104
s_1_140 0
z_1_140 0
x_1_141 9.9226973056793213e+01
s_1_141 0
z_1_141 0
x_1_142 9.9231070280075073e+01
s_1_142 0
z_1_142 0
x_1_143 9.8924878358840942e+01
s_1_143 0
z_1_143 0
x_1_144 1.0042468667030334e+02
s_1_144 0
z_1_144 0
x_1_145 1.0022892284393311e+02
s_1_145 0
z_1_145 0
x_1_146 4.9999728589056758e+04
s_1_146 5.0000271410943242e+04
z_1_146 5.0000271410943242e-01
x_1_147 0
s_1_147 6.3026446494041011e-01
z_1_147 1
x_1_148 0
s_1_148 8.0558923620264977e-01
z_1_148 1
x_1_149 9.9449444293975830e+01
s_1_149 0
z_1_149 0
x_1_150 0
s_1_150 4.4449762161821127e-01
z_1_150 1
x_1_151 9.9071974515914917e+01
s_1_151 0
z_1_151 0
x_1_152 0
s_1_152 8.8025971059687436e-01
z_1_152 1
x_1_153 9.9402760505676270e+01
s_1_153 0
z_1_153 0
x_1_154 1.0053335738182068e+02
s_1_154 0
z_1_154 0
x_1_155 0
s_1_155 9.0105908695477410e-01
z_1_155 1
x_1_156 0
s_1_156 6.2542954488890246e-01
z_1_156 1
x_1_157 1.0081915426254272e+02
s_1_157 0
z_1_157 0
x_1_158 0
s_1_158 0.931033581495285
z_1_158 1
x_1_159 0
s_1_159 9.4163468875922263e-01
z_1_159 1
x_2_0 5.4752491869559584e+04
